% seed = 6045212

mint = 55;
% maxt = 203;

nActs = 42;
dur = [0,3,8,8,7,1,9,8,2,2,3,7,10,4,6,5,5,8,8,2,10,3,3,5,4,2,7,5,6,4,10,4,5,2,1,3,5,1,5,10,2,0];

nSkills = 4;
sreq = [| 0,0,0,0,
	| 0,4,5,0,
	| 4,0,0,3,
	| 0,7,0,1,
	| 0,5,0,1,
	| 6,0,3,0,
	| 5,0,3,0,
	| 1,0,0,4,
	| 2,0,6,0,
	| 0,5,0,1,
	| 5,0,0,2,
	| 0,0,2,6,
	| 6,6,0,0,
	| 0,7,0,4,
	| 0,0,4,4,
	| 0,6,3,0,
	| 3,3,0,0,
	| 0,0,5,2,
	| 0,4,0,4,
	| 6,0,2,0,
	| 5,0,7,0,
	| 0,4,3,0,
	| 3,4,0,0,
	| 0,7,0,5,
	| 3,0,0,5,
	| 3,3,0,0,
	| 3,0,4,0,
	| 0,5,1,0,
	| 0,5,0,4,
	| 2,0,3,0,
	| 4,0,0,4,
	| 4,0,3,0,
	| 0,7,0,3,
	| 6,6,0,0,
	| 4,0,4,0,
	| 0,2,0,4,
	| 5,0,3,0,
	| 4,3,0,0,
	| 0,6,0,5,
	| 0,0,2,4,
	| 4,4,0,0,
	| 0,0,0,0, |];

nResources = 30;
mastery = [| true,true,true,false,
	| false,true,false,false,
	| true,false,true,true,
	| true,true,false,true,
	| true,false,false,true,
	| true,false,false,true,
	| true,false,true,true,
	| true,true,false,true,
	| false,false,false,true,
	| true,false,false,true,
	| true,false,true,true,
	| true,false,false,false,
	| true,true,false,true,
	| false,true,true,true,
	| false,false,false,true,
	| false,true,false,false,
	| false,false,false,true,
	| false,true,false,true,
	| true,false,false,false,
	| true,true,false,false,
	| false,false,false,true,
	| true,false,false,false,
	| true,false,false,true,
	| true,false,false,true,
	| false,true,false,true,
	| true,false,false,false,
	| true,false,false,false,
	| false,true,true,false,
	| false,true,false,true,
	| false,true,true,false, |];

nPrecs = 61;
pred = [1,1,1,2,2,3,3,3,4,4,4,5,6,7,7,7,8,9,9,9,10,10,10,11,12,13,14,14,14,15,16,17,17,18,18,19,19,20,21,22,23,24,24,25,26,27,28,29,30,31,32,33,34,35,36,36,37,38,39,40,41];
succ = [2,3,4,35,24,29,13,7,9,5,6,40,29,11,14,8,16,10,12,15,26,21,30,19,19,36,17,20,32,18,41,21,23,33,36,25,22,31,27,32,31,37,38,40,37,28,34,41,35,33,34,37,39,39,38,40,39,41,42,42,42];

nUnrels = 560;
unpred = [2,2,2,2,2,2,2,2,2,2,2,2,2,2,2,2,2,2,2,2,2,2,2,2,2,2,2,2,2,2,2,2,2,3,3,3,3,3,3,3,3,3,3,3,3,4,4,4,4,4,4,4,4,4,4,4,5,5,5,5,5,5,5,5,5,5,5,5,5,5,5,5,5,5,5,5,5,5,5,5,5,5,5,5,5,5,5,5,5,5,5,6,6,6,6,6,6,6,6,6,6,6,6,6,6,6,6,6,6,6,6,6,6,6,6,6,6,6,6,6,6,6,6,6,7,7,7,7,7,7,7,7,7,7,7,7,7,8,8,8,8,8,8,8,8,8,8,8,8,8,8,8,8,8,8,8,8,8,8,8,8,8,8,8,8,8,8,8,9,9,9,9,9,9,9,9,9,9,10,10,10,10,10,10,10,10,10,10,10,10,10,10,10,10,10,10,10,10,10,10,11,11,11,11,11,11,11,11,11,11,11,11,11,11,11,11,11,11,11,11,11,11,11,12,12,12,12,12,12,12,12,12,12,12,12,12,12,12,12,12,12,12,12,12,12,13,13,13,13,13,13,13,13,13,13,13,13,13,13,13,13,13,13,13,13,13,13,13,13,14,14,14,14,14,14,14,14,14,14,14,14,14,14,14,15,15,15,15,15,15,15,15,15,15,15,15,15,15,15,15,15,15,16,16,16,16,16,16,16,16,16,16,16,16,16,16,16,16,16,16,16,16,16,16,16,16,17,17,17,17,17,17,17,17,17,17,17,17,17,17,17,18,18,18,18,18,18,18,18,18,18,18,18,18,18,18,18,19,19,19,19,19,19,19,19,19,19,19,19,19,19,19,19,20,20,20,20,20,20,20,20,20,20,20,20,20,20,20,20,20,21,21,21,21,21,21,21,21,21,21,21,21,21,21,21,21,22,22,22,22,22,22,22,22,22,22,22,22,22,22,22,22,23,23,23,23,23,23,23,23,23,23,23,23,23,23,24,24,24,24,24,24,24,24,24,24,24,24,24,25,25,25,25,25,25,25,25,25,25,25,25,25,25,25,26,26,26,26,26,26,26,26,26,26,26,26,26,27,27,27,27,27,27,27,27,27,27,27,28,28,28,28,28,28,28,28,28,28,28,29,29,29,29,29,29,29,29,29,29,29,30,30,30,30,30,30,30,30,30,31,31,31,31,31,31,31,32,32,32,32,32,32,32,33,33,33,33,33,33,34,34,34,34,34,34,35,35,35,35,35,36,36,37,37,37,38,38,39,39,40];
unsucc = [3,4,5,6,7,8,9,10,11,12,13,14,15,16,17,18,19,20,21,22,23,25,26,27,28,29,30,31,32,33,34,36,40,4,5,6,9,10,12,15,18,24,26,30,35,7,8,11,13,14,16,17,20,23,24,31,6,7,8,9,10,11,12,13,14,15,16,17,18,19,20,21,22,23,24,25,26,27,28,29,30,31,32,33,34,35,36,37,38,39,41,7,8,9,10,11,12,13,14,15,16,17,18,19,20,21,22,23,24,25,26,27,28,30,31,32,33,34,35,36,37,38,39,40,9,10,12,13,15,18,24,26,29,30,35,36,38,9,10,11,12,13,14,15,17,18,19,20,21,22,23,24,25,26,27,28,29,30,31,32,33,34,35,36,37,38,39,40,11,13,14,16,17,20,23,24,29,31,11,12,13,14,15,16,17,18,19,20,22,23,24,25,29,31,32,33,36,38,40,41,12,13,14,15,16,17,18,20,21,23,24,26,27,28,29,30,31,33,35,36,37,38,41,13,14,15,16,17,18,20,21,23,24,26,27,28,29,30,31,33,35,36,37,38,41,14,15,16,17,18,19,20,21,22,23,24,25,26,27,28,29,30,31,32,33,34,35,37,39,15,16,18,19,22,24,25,26,29,30,35,36,38,40,41,16,17,19,20,21,22,23,24,25,26,27,28,29,30,31,32,34,35,17,18,19,20,21,22,23,24,25,26,27,28,29,30,31,32,33,34,35,36,37,38,39,40,18,19,20,22,24,25,26,29,30,32,35,36,38,40,41,19,20,21,22,23,24,25,26,27,28,29,30,31,32,34,35,20,21,23,24,26,27,28,29,30,31,33,35,36,37,38,41,21,22,23,24,25,26,27,28,29,30,32,34,35,36,38,40,41,22,23,24,25,26,29,30,31,32,33,35,36,37,38,40,41,23,24,25,26,27,28,29,30,31,33,35,36,37,38,40,41,24,25,26,27,28,29,30,32,34,35,36,38,40,41,25,26,27,28,29,30,31,32,33,34,35,36,40,26,27,28,29,30,31,32,33,34,35,36,37,38,39,41,27,28,29,30,31,32,33,34,35,36,38,40,41,29,30,31,32,33,35,36,37,38,40,41,29,30,31,32,33,35,36,37,38,40,41,30,31,32,33,34,35,36,37,38,39,40,31,32,33,34,36,37,38,40,41,32,34,35,36,38,40,41,33,35,36,37,38,40,41,34,35,36,38,40,41,35,36,37,38,40,41,36,37,38,40,41,37,39,38,40,41,39,40,40,41,41];

USEFUL_RES = [{},
	{1,2,3,4,7,8,11,13,14,16,18,20,25,28,29,30},
	{1,3,4,5,6,7,8,9,10,11,12,13,14,15,17,18,19,20,21,22,23,24,25,26,27,29},
	{1,2,3,4,5,6,7,8,9,10,11,13,14,15,16,17,18,20,21,23,24,25,28,29,30},
	{1,2,3,4,5,6,7,8,9,10,11,13,14,15,16,17,18,20,21,23,24,25,28,29,30},
	{1,3,4,5,6,7,8,10,11,12,13,14,19,20,22,23,24,26,27,28,30},
	{1,3,4,5,6,7,8,10,11,12,13,14,19,20,22,23,24,26,27,28,30},
	{1,3,4,5,6,7,8,9,10,11,12,13,14,15,17,18,19,20,21,22,23,24,25,26,27,29},
	{1,3,4,5,6,7,8,10,11,12,13,14,19,20,22,23,24,26,27,28,30},
	{1,2,3,4,5,6,7,8,9,10,11,13,14,15,16,17,18,20,21,23,24,25,28,29,30},
	{1,3,4,5,6,7,8,9,10,11,12,13,14,15,17,18,19,20,21,22,23,24,25,26,27,29},
	{1,3,4,5,6,7,8,9,10,11,13,14,15,17,18,21,23,24,25,28,29,30},
	{1,2,3,4,5,6,7,8,10,11,12,13,14,16,18,19,20,22,23,24,25,26,27,28,29,30},
	{1,2,3,4,5,6,7,8,9,10,11,13,14,15,16,17,18,20,21,23,24,25,28,29,30},
	{1,3,4,5,6,7,8,9,10,11,13,14,15,17,18,21,23,24,25,28,29,30},
	{1,2,3,4,7,8,11,13,14,16,18,20,25,28,29,30},
	{1,2,3,4,5,6,7,8,10,11,12,13,14,16,18,19,20,22,23,24,25,26,27,28,29,30},
	{1,3,4,5,6,7,8,9,10,11,13,14,15,17,18,21,23,24,25,28,29,30},
	{1,2,3,4,5,6,7,8,9,10,11,13,14,15,16,17,18,20,21,23,24,25,28,29,30},
	{1,3,4,5,6,7,8,10,11,12,13,14,19,20,22,23,24,26,27,28,30},
	{1,3,4,5,6,7,8,10,11,12,13,14,19,20,22,23,24,26,27,28,30},
	{1,2,3,4,7,8,11,13,14,16,18,20,25,28,29,30},
	{1,2,3,4,5,6,7,8,10,11,12,13,14,16,18,19,20,22,23,24,25,26,27,28,29,30},
	{1,2,3,4,5,6,7,8,9,10,11,13,14,15,16,17,18,20,21,23,24,25,28,29,30},
	{1,3,4,5,6,7,8,9,10,11,12,13,14,15,17,18,19,20,21,22,23,24,25,26,27,29},
	{1,2,3,4,5,6,7,8,10,11,12,13,14,16,18,19,20,22,23,24,25,26,27,28,29,30},
	{1,3,4,5,6,7,8,10,11,12,13,14,19,20,22,23,24,26,27,28,30},
	{1,2,3,4,7,8,11,13,14,16,18,20,25,28,29,30},
	{1,2,3,4,5,6,7,8,9,10,11,13,14,15,16,17,18,20,21,23,24,25,28,29,30},
	{1,3,4,5,6,7,8,10,11,12,13,14,19,20,22,23,24,26,27,28,30},
	{1,3,4,5,6,7,8,9,10,11,12,13,14,15,17,18,19,20,21,22,23,24,25,26,27,29},
	{1,3,4,5,6,7,8,10,11,12,13,14,19,20,22,23,24,26,27,28,30},
	{1,2,3,4,5,6,7,8,9,10,11,13,14,15,16,17,18,20,21,23,24,25,28,29,30},
	{1,2,3,4,5,6,7,8,10,11,12,13,14,16,18,19,20,22,23,24,25,26,27,28,29,30},
	{1,3,4,5,6,7,8,10,11,12,13,14,19,20,22,23,24,26,27,28,30},
	{1,2,3,4,5,6,7,8,9,10,11,13,14,15,16,17,18,20,21,23,24,25,28,29,30},
	{1,3,4,5,6,7,8,10,11,12,13,14,19,20,22,23,24,26,27,28,30},
	{1,2,3,4,5,6,7,8,10,11,12,13,14,16,18,19,20,22,23,24,25,26,27,28,29,30},
	{1,2,3,4,5,6,7,8,9,10,11,13,14,15,16,17,18,20,21,23,24,25,28,29,30},
	{1,3,4,5,6,7,8,9,10,11,13,14,15,17,18,21,23,24,25,28,29,30},
	{1,2,3,4,5,6,7,8,10,11,12,13,14,16,18,19,20,22,23,24,25,26,27,28,29,30},
	{}];

POTENTIAL_ACT = [{2,3,4,5,6,7,8,9,10,11,12,13,14,15,16,17,18,19,20,21,22,23,24,25,26,27,28,29,30,31,32,33,34,35,36,37,38,39,40,41},
	{2,4,5,10,13,14,16,17,19,22,23,24,26,28,29,33,34,36,38,39,41},
	{2,3,4,5,6,7,8,9,10,11,12,13,14,15,16,17,18,19,20,21,22,23,24,25,26,27,28,29,30,31,32,33,34,35,36,37,38,39,40,41},
	{2,3,4,5,6,7,8,9,10,11,12,13,14,15,16,17,18,19,20,21,22,23,24,25,26,27,28,29,30,31,32,33,34,35,36,37,38,39,40,41},
	{3,4,5,6,7,8,9,10,11,12,13,14,15,17,18,19,20,21,23,24,25,26,27,29,30,31,32,33,34,35,36,37,38,39,40,41},
	{3,4,5,6,7,8,9,10,11,12,13,14,15,17,18,19,20,21,23,24,25,26,27,29,30,31,32,33,34,35,36,37,38,39,40,41},
	{2,3,4,5,6,7,8,9,10,11,12,13,14,15,16,17,18,19,20,21,22,23,24,25,26,27,28,29,30,31,32,33,34,35,36,37,38,39,40,41},
	{2,3,4,5,6,7,8,9,10,11,12,13,14,15,16,17,18,19,20,21,22,23,24,25,26,27,28,29,30,31,32,33,34,35,36,37,38,39,40,41},
	{3,4,5,8,10,11,12,14,15,18,19,24,25,29,31,33,36,39,40},
	{3,4,5,6,7,8,9,10,11,12,13,14,15,17,18,19,20,21,23,24,25,26,27,29,30,31,32,33,34,35,36,37,38,39,40,41},
	{2,3,4,5,6,7,8,9,10,11,12,13,14,15,16,17,18,19,20,21,22,23,24,25,26,27,28,29,30,31,32,33,34,35,36,37,38,39,40,41},
	{3,6,7,8,9,11,13,17,20,21,23,25,26,27,30,31,32,34,35,37,38,41},
	{2,3,4,5,6,7,8,9,10,11,12,13,14,15,16,17,18,19,20,21,22,23,24,25,26,27,28,29,30,31,32,33,34,35,36,37,38,39,40,41},
	{2,3,4,5,6,7,8,9,10,11,12,13,14,15,16,17,18,19,20,21,22,23,24,25,26,27,28,29,30,31,32,33,34,35,36,37,38,39,40,41},
	{3,4,5,8,10,11,12,14,15,18,19,24,25,29,31,33,36,39,40},
	{2,4,5,10,13,14,16,17,19,22,23,24,26,28,29,33,34,36,38,39,41},
	{3,4,5,8,10,11,12,14,15,18,19,24,25,29,31,33,36,39,40},
	{2,3,4,5,8,10,11,12,13,14,15,16,17,18,19,22,23,24,25,26,28,29,31,33,34,36,38,39,40,41},
	{3,6,7,8,9,11,13,17,20,21,23,25,26,27,30,31,32,34,35,37,38,41},
	{2,3,4,5,6,7,8,9,10,11,13,14,16,17,19,20,21,22,23,24,25,26,27,28,29,30,31,32,33,34,35,36,37,38,39,41},
	{3,4,5,8,10,11,12,14,15,18,19,24,25,29,31,33,36,39,40},
	{3,6,7,8,9,11,13,17,20,21,23,25,26,27,30,31,32,34,35,37,38,41},
	{3,4,5,6,7,8,9,10,11,12,13,14,15,17,18,19,20,21,23,24,25,26,27,29,30,31,32,33,34,35,36,37,38,39,40,41},
	{3,4,5,6,7,8,9,10,11,12,13,14,15,17,18,19,20,21,23,24,25,26,27,29,30,31,32,33,34,35,36,37,38,39,40,41},
	{2,3,4,5,8,10,11,12,13,14,15,16,17,18,19,22,23,24,25,26,28,29,31,33,34,36,38,39,40,41},
	{3,6,7,8,9,11,13,17,20,21,23,25,26,27,30,31,32,34,35,37,38,41},
	{3,6,7,8,9,11,13,17,20,21,23,25,26,27,30,31,32,34,35,37,38,41},
	{2,4,5,6,7,9,10,12,13,14,15,16,17,18,19,20,21,22,23,24,26,27,28,29,30,32,33,34,35,36,37,38,39,40,41},
	{2,3,4,5,8,10,11,12,13,14,15,16,17,18,19,22,23,24,25,26,28,29,31,33,34,36,38,39,40,41},
	{2,4,5,6,7,9,10,12,13,14,15,16,17,18,19,20,21,22,23,24,26,27,28,29,30,32,33,34,35,36,37,38,39,40,41}];
